column=9;
row=9;
Board=[|0,0,0,0,0,0,0,0,0|0,8,0,0,6,0,0,0,4|0,0,0,0,0,9,0,0,0|0,0,0,9,0,0,0,6,1|6,2,3,4,1,8,0,9,0|1,0,0,0,0,0,0,0,0|8,9,4,0,0,0,0,3,2|0,6,5,0,0,0,0,0,9|2,1,0,0,0,6,4,8,5|];
horizontal=[|0,0,1,0,0,1,0,0|0,0,1,2,0,0,0,0|2,0,0,0,0,0,0,1|2,0,0,0,0,0,0,0|0,0,0,2,0,0,1,0|0,0,2,1,2,1,0,0|0,0,0,0,1,2,0,0|0,2,0,0,0,1,0,0|2,0,0,0,0,2,0,2|];
vertical=[|0,1,0,0,0,0,1,2,0|2,0,0,0,0,0,0,0,0|0,1,0,0,0,0,0,2,0|2,0,2,0,2,0,1,1,0|0,1,0,1,0,0,1,0,2|0,1,2,2,0,0,0,2,2|0,0,1,0,0,2,1,0,0|0,0,1,1,0,0,0,1,0|];
